
Gurobi 6.5.2 (linux64) logging started Tue Sep 20 21:27:07 2016


Gurobi 6.5.2 (linux64) logging started Tue Sep 20 21:27:07 2016

Optimize a model with 201 rows, 3565 columns and 8081 nonzeros
Coefficient statistics:
  Matrix range    [1e+00, 2e+00]
  Objective range [1e+00, 1e+02]
  Bounds range    [1e+00, 1e+00]
  RHS range       [1e+00, 1e+00]
Presolve removed 56 rows and 1 columns
Presolve time: 0.01s
Presolved: 145 rows, 3564 columns, 7473 nonzeros
Variable types: 0 continuous, 3564 integer (3564 binary)

Root relaxation: objective 8.585000e+02, 133 iterations, 0.00 seconds

    Nodes    |    Current Node    |     Objective Bounds      |     Work
 Expl Unexpl |  Obj  Depth IntInf | Incumbent    BestBd   Gap | It/Node Time

     0     0  858.50000    0   20          -  858.50000      -     -    0s
     0     0  876.00000    0   12          -  876.00000      -     -    0s
     0     0  877.00000    0    6          -  877.00000      -     -    0s
     0     0  877.25000    0   12          -  877.25000      -     -    0s
     0     0  877.25000    0   12          -  877.25000      -     -    0s
     0     2  877.25000    0   12          -  877.25000      -     -    0s
  3346  1911  947.00000  121    6          -  878.33333      -   4.3    5s
  8152  5779  881.25000   32    8          -  879.12500      -   4.2   10s

Cutting planes:
  Gomory: 11
  Cover: 23
  Flow cover: 3
  Zero half: 7
  Lazy constraints: 1361

Explored 8515 nodes (36086 simplex iterations) in 10.07 seconds
Thread count was 8 (of 8 available processors)

Time limit reached
Best objective -, best bound 8.800000000000e+02, gap -
